
Gurobi 12.0.2 (win64) logging started Tue Jun  3 13:15:52 2025

Set parameter LogFile to value "C:\Ioana\_uni\honours\slp\algorithm\Main_files\results\paracetamol\Task_003_Sample002_irr_gurobi.log"
Gurobi Optimizer version 12.0.2 build v12.0.2rc0 (win64 - Windows 11.0 (26100.2))

CPU model: Intel(R) Core(TM) Ultra 5 125H, instruction set [SSE2|AVX|AVX2]
Thread count: 14 physical cores, 18 logical processors, using up to 18 threads

Non-default parameters:
TimeLimit  2200

Optimize a model with 47226 rows, 34503 columns and 146690 nonzeros
Model fingerprint: 0xf867628a
Variable types: 17258 continuous, 17245 integer (17245 binary)
Coefficient statistics:
  Matrix range     [1e-04, 8e+04]
  Objective range  [4e-04, 9e-01]
  Bounds range     [1e+00, 1e+03]
  RHS range        [1e+00, 1e+00]
Found heuristic solution: objective 2.1021093
Presolve removed 32833 rows and 23000 columns
Presolve time: 0.36s
Presolved: 14393 rows, 11503 columns, 46830 nonzeros
Variable types: 5700 continuous, 5803 integer (5803 binary)

Root relaxation: objective 3.106747e-02, 1549 iterations, 0.10 seconds (0.22 work units)

    Nodes    |    Current Node    |     Objective Bounds      |     Work
 Expl Unexpl |  Obj  Depth IntInf | Incumbent    BestBd   Gap | It/Node Time

     0     0    0.03107    0    2    2.10211    0.03107  98.5%     -    0s
H    0     0                       0.9118785    0.03107  96.6%     -    0s
H    0     0                       0.2373405    0.03107  86.9%     -    0s
     0     0    0.03107    0    2    0.23734    0.03107  86.9%     -    0s

Explored 1 nodes (1549 simplex iterations) in 0.53 seconds (0.65 work units)
Thread count was 18 (of 18 available processors)

Solution count 3: 0.237341 0.911879 2.10211 

Optimal solution found (tolerance 1.00e-04)
Best objective 2.373405494576e-01, best bound 2.373405494576e-01, gap 0.0000%
